SECTION Graph
Nodes 116
Edges 115

E 1 25 309
E 1 33 299
E 1 46 305
E 2 3 293
E 2 67 297
E 2 261 192
E 3 23 296
E 3 26 297
E 3 28 293
E 3 118 200
E 4 142 196
E 4 192 191
E 5 264 194
E 6 307 196
E 7 40 301
E 8 24 299
E 8 60 304
E 9 280 196
E 10 36 307
E 10 54 303
E 10 261 192
E 11 66 304
E 11 104 190
E 12 243 193
E 12 314 201
E 13 55 306
E 13 166 199
E 14 23 309
E 14 34 292
E 14 211 199
E 15 16 298
E 15 39 301
E 16 161 198
E 16 166 202
E 16 170 194
E 17 258 203
E 18 245 196
E 19 192 198
E 20 35 303
E 21 171 189
E 22 51 296
E 22 308 197
E 23 52 300
E 24 47 296
E 24 124 197
E 25 63 303
E 25 239 194
E 25 243 198
E 26 171 198
E 27 143 199
E 28 142 195
E 29 46 302
E 29 177 193
E 29 245 204
E 29 295 195
E 30 34 300
E 30 80 304
E 30 161 187
E 31 68 296
E 32 295 195
E 33 280 197
E 33 308 196
E 33 315 202
E 34 264 205
E 35 72 290
E 36 295 192
E 37 237 195
E 38 61 299
E 38 233 203
E 40 315 198
E 41 104 205
E 42 77 300
E 43 78 305
E 44 159 192
E 45 279 205
E 46 282 195
E 47 142 196
E 48 216 213
E 49 184 196
E 50 124 193
E 51 62 302
E 51 71 304
E 51 263 196
E 53 216 197
E 53 283 208
E 54 65 299
E 54 237 195
E 56 143 201
E 57 224 201
E 58 266 196
E 59 66 299
E 61 279 199
E 62 143 202
E 64 72 298
E 65 77 301
E 65 184 196
E 65 307 196
E 66 239 195
E 68 308 199
E 69 76 301
E 69 282 188
E 70 170 196
E 72 177 198
E 72 320 210
E 73 314 194
E 74 211 196
E 75 320 204
E 76 233 190
E 78 118 194
E 79 263 192
E 80 283 195
E 159 177 95
E 170 224 95
E 258 279 88
E 266 314 99
END
SECTION Terminals
T 1
T 2
T 3
T 4
T 5
T 6
T 7
T 8
T 9
T 10
T 11
T 12
T 13
T 14
T 15
T 16
T 17
T 18
T 19
T 20
T 21
T 22
T 23
T 24
T 25
T 26
T 27
T 28
T 29
T 30
T 31
T 32
T 33
T 34
T 35
T 36
T 37
T 38
T 39
T 40
T 41
T 42
T 43
T 44
T 45
T 46
T 47
T 48
T 49
T 50
T 51
T 52
T 53
T 54
T 55
T 56
T 57
T 58
T 59
T 60
T 61
T 62
T 63
T 64
T 65
T 66
T 67
T 68
T 69
T 70
T 71
T 72
T 73
T 74
T 75
T 76
T 77
T 78
T 79
T 80
END
SECTION Cost
26280
END
